Minimize
  - 5 y_0 - 6 y_2 - 6 y_3 - 3 y_4 - 4 y_5 - 6 y_6 - 6 y_7 - 4 y_8 - 6 y_9
   - 3 y_10 - 4 y_11 - 3 y_12 - y_13 - 2 y_14 - 5 y_15 - y_16 - 6 y_17
   - 4 y_18 - 3 y_19 - 5 y_20 - 6 y_21 - 5 y_22 - 4 y_24 - 3 y_25 - 5 y_26
   - 5 y_27 - 5 y_28 - 3 y_29 - 5 y_30 - 3 y_31 - 6 y_32 - 3 y_34 - y_35
   - 2 y_36 - 5 y_37 - 3 y_38 - 4 y_39 - 4 y_40 - 7 y_41 - 3 y_42 - 3 y_43
   - 3 y_44 - 3 y_45 - 2 y_46 - y_47 - 5 y_48 - 5 y_49 - 5 y_50 - 2 y_51
   - 4 y_52 - 5 y_53 - 3 y_54 - 3 y_55 - 4 y_56 - 5 y_57 - 4 y_58 - 3 y_59
   - 3 y_60 - y_61 - 2 y_62 - 5 y_63 - 3 y_64 - 4 y_65 - 4 y_66 - 5 y_67
   - 5 y_68 - 2 y_69 - 3 y_70 - 6 y_71 - 3 y_72 - 4 y_73 - 6 y_74 - 2 y_75
   - 2 y_76 - 5 y_77 - 4 y_78 - 3 y_79 - 4 y_80 - 5 y_81 - 3 y_82 - 4 y_83
   - 4 y_84 - 2 y_85 - 4 y_86 - 4 y_87 - 6 y_88 - 7 y_89 - 4 y_90 - 5 y_91
   - 4 y_92 - 4 y_93 - 5 y_94 - 6 y_95 - 3 y_96 - 3 y_97 - 4 y_98 - 5 y_99
   + 383 Constant
Subject To
 c_0: y_36 = 1
 c_1_0: y_0 + y_2 + y_39 + y_48 + y_49 + y_52 + y_74 + y_94 >= 1
 c_1_1: y_1 + y_13 + y_16 + y_23 + y_33 + y_35 + y_47 + y_51 + y_61 + y_76
   >= 1
 c_1_2: y_0 + y_2 + y_39 + y_40 + y_48 + y_49 + y_52 + y_74 + y_94 >= 1
 c_1_3: y_3 + y_5 + y_11 + y_17 + y_21 + y_22 + y_27 + y_41 + y_63 + y_88
   + y_89 + y_92 >= 1
 c_1_4: y_4 + y_51 + y_64 + y_65 + y_86 + y_87 + y_91 + y_98 >= 1
 c_1_5: y_3 + y_5 + y_10 + y_11 + y_19 + y_21 + y_22 + y_24 + y_27 + y_55
   + y_63 + y_70 + y_88 + y_92 >= 1
 c_1_6: y_6 + y_7 + y_9 + y_28 + y_32 + y_95 >= 1
 c_1_7: y_6 + y_7 + y_9 + y_26 + y_28 + y_32 + y_95 >= 1
 c_1_8: y_8 + y_28 + y_36 + y_45 + y_54 + y_62 + y_72 + y_86 + y_90 + y_95
   >= 1
 c_1_9: y_6 + y_7 + y_9 + y_26 + y_28 + y_32 + y_95 >= 1
 c_1_10: y_5 + y_10 + y_11 + y_19 + y_27 + y_44 + y_46 + y_55 + y_63 + y_69
   + y_70 + y_92 + y_93 >= 1
 c_1_11: y_3 + y_5 + y_10 + y_11 + y_19 + y_21 + y_22 + y_24 + y_27 + y_55
   + y_63 + y_70 + y_92 >= 1
 c_1_12: y_12 + y_13 + y_34 + y_38 + y_42 + y_43 + y_47 + y_60 + y_66
   + y_73 + y_78 + y_79 + y_97 >= 1
 c_1_13: y_1 + y_12 + y_13 + y_14 + y_23 + y_33 + y_35 + y_38 + y_43 + y_47
   + y_61 + y_76 >= 1
 c_1_14: y_13 + y_14 + y_25 + y_29 + y_31 + y_33 + y_35 + y_47 + y_59
   + y_61 + y_76 + y_82 + y_85 + y_96 >= 1
 c_1_15: y_15 + y_31 + y_37 + y_44 + y_53 + y_56 + y_57 + y_67 + y_71
   + y_81 + y_83 + y_93 + y_99 >= 1
 c_1_16: y_1 + y_16 + y_23 + y_33 + y_36 + y_46 + y_54 + y_61 + y_62 + y_69
   + y_72 + y_75 >= 1
 c_1_17: y_3 + y_17 + y_27 + y_63 + y_67 + y_71 + y_81 + y_89 >= 1
 c_1_18: y_18 + y_29 + y_34 + y_39 + y_40 + y_48 + y_49 + y_52 + y_58
   + y_76 + y_77 + y_84 + y_85 + y_94 >= 1
 c_1_19: y_5 + y_10 + y_11 + y_19 + y_24 + y_46 + y_55 + y_69 + y_70 + y_75
   + y_92 >= 1
 c_1_20: y_20 + y_42 + y_66 + y_68 + y_73 + y_78 >= 1
 c_1_21: y_3 + y_5 + y_11 + y_21 + y_22 + y_24 + y_41 + y_63 + y_88 + y_92
   >= 1
 c_1_22: y_3 + y_5 + y_11 + y_21 + y_22 + y_24 + y_27 + y_41 + y_63 + y_88
   + y_92 >= 1
 c_1_23: y_1 + y_13 + y_16 + y_23 + y_33 + y_35 + y_36 + y_47 + y_51 + y_61
   + y_69 + y_76 >= 1
 c_1_24: y_5 + y_11 + y_19 + y_21 + y_22 + y_24 + y_30 + y_55 + y_70 + y_92
   >= 1
 c_1_25: y_14 + y_25 + y_29 + y_31 + y_39 + y_44 + y_52 + y_53 + y_56
   + y_59 + y_82 + y_83 + y_85 + y_96 >= 1
 c_1_26: y_7 + y_9 + y_26 + y_30 + y_32 + y_45 + y_50 + y_95 >= 1
 c_1_27: y_3 + y_5 + y_10 + y_11 + y_17 + y_22 + y_27 + y_41 + y_63 + y_67
   + y_71 + y_81 + y_88 + y_89 + y_92 + y_93 >= 1
 c_1_28: y_6 + y_7 + y_8 + y_9 + y_28 + y_32 + y_45 + y_54 + y_90 + y_95
   >= 1
 c_1_29: y_14 + y_18 + y_25 + y_29 + y_34 + y_35 + y_40 + y_47 + y_58
   + y_59 + y_61 + y_76 + y_85 + y_96 >= 1
 c_1_30: y_24 + y_26 + y_30 + y_45 + y_50 + y_72 >= 1
 c_1_31: y_14 + y_15 + y_25 + y_31 + y_44 + y_56 + y_57 + y_59 + y_82
   + y_83 + y_85 + y_93 + y_96 + y_99 >= 1
 c_1_32: y_6 + y_7 + y_9 + y_26 + y_28 + y_32 + y_50 + y_95 >= 1
 c_1_33: y_1 + y_13 + y_14 + y_16 + y_23 + y_33 + y_35 + y_47 + y_61 + y_69
   + y_76 >= 1
 c_1_34: y_12 + y_18 + y_29 + y_34 + y_38 + y_43 + y_47 + y_66 + y_76
   + y_77 + y_79 + y_80 + y_84 + y_97 >= 1
 c_1_35: y_1 + y_13 + y_14 + y_23 + y_29 + y_33 + y_35 + y_47 + y_59 + y_61
   + y_69 + y_76 + y_85 >= 1
 c_1_36: y_8 + y_16 + y_23 + y_36 + y_45 + y_51 + y_54 + y_62 + y_64 + y_72
   + y_75 + y_86 >= 1
 c_1_37: y_15 + y_37 + y_44 + y_53 + y_56 + y_57 + y_67 + y_83 + y_99 >= 1
 c_1_38: y_12 + y_13 + y_34 + y_38 + y_42 + y_43 + y_47 + y_60 + y_66
   + y_73 + y_76 + y_78 + y_79 + y_80 + y_97 >= 1
 c_1_39: y_0 + y_2 + y_18 + y_25 + y_39 + y_40 + y_48 + y_49 + y_52 + y_58
   + y_74 + y_82 + y_94 >= 1
 c_1_40: y_2 + y_18 + y_29 + y_39 + y_40 + y_48 + y_49 + y_52 + y_58 + y_77
   + y_84 + y_94 >= 1
 c_1_41: y_3 + y_21 + y_22 + y_27 + y_41 + y_63 + y_88 + y_89 >= 1
 c_1_42: y_12 + y_20 + y_38 + y_42 + y_43 + y_60 + y_66 + y_68 + y_73
   + y_78 + y_80 + y_87 + y_97 >= 1
 c_1_43: y_12 + y_13 + y_34 + y_38 + y_42 + y_43 + y_47 + y_60 + y_66
   + y_73 + y_78 + y_79 + y_97 >= 1
 c_1_44: y_10 + y_15 + y_25 + y_31 + y_37 + y_44 + y_53 + y_56 + y_57
   + y_59 + y_67 + y_82 + y_83 + y_93 + y_96 + y_99 >= 1
 c_1_45: y_8 + y_26 + y_28 + y_30 + y_36 + y_45 + y_50 + y_54 + y_62 + y_72
   + y_75 >= 1
 c_1_46: y_10 + y_16 + y_19 + y_46 + y_55 + y_69 + y_70 + y_75 + y_92 >= 1
 c_1_47: y_1 + y_12 + y_13 + y_14 + y_23 + y_29 + y_33 + y_34 + y_35 + y_38
   + y_43 + y_47 + y_61 + y_76 + y_79 + y_85 + y_97 >= 1
 c_1_48: y_0 + y_2 + y_18 + y_39 + y_40 + y_48 + y_49 + y_52 + y_58 + y_74
   + y_77 + y_94 >= 1
 c_1_49: y_0 + y_2 + y_18 + y_39 + y_40 + y_48 + y_49 + y_52 + y_58 + y_74
   + y_77 + y_94 >= 1
 c_1_50: y_26 + y_30 + y_32 + y_45 + y_50 >= 1
 c_1_51: y_1 + y_4 + y_23 + y_36 + y_51 + y_54 + y_64 + y_65 + y_86 >= 1
 c_1_52: y_0 + y_2 + y_18 + y_25 + y_39 + y_40 + y_48 + y_49 + y_52 + y_53
   + y_74 + y_82 + y_94 + y_96 >= 1
 c_1_53: y_15 + y_25 + y_37 + y_44 + y_52 + y_53 + y_56 + y_57 + y_82
   + y_83 + y_99 >= 1
 c_1_54: y_8 + y_16 + y_28 + y_36 + y_45 + y_51 + y_54 + y_62 + y_72 + y_75
   + y_86 + y_90 >= 1
 c_1_55: y_5 + y_10 + y_11 + y_19 + y_24 + y_46 + y_55 + y_63 + y_69 + y_70
   + y_92 + y_93 >= 1
 c_1_56: y_15 + y_25 + y_31 + y_37 + y_44 + y_53 + y_56 + y_57 + y_59
   + y_82 + y_83 + y_93 + y_96 + y_99 >= 1
 c_1_57: y_15 + y_31 + y_37 + y_44 + y_53 + y_56 + y_57 + y_67 + y_71
   + y_81 + y_82 + y_83 + y_93 + y_99 >= 1
 c_1_58: y_18 + y_29 + y_39 + y_40 + y_48 + y_49 + y_58 + y_77 + y_84
   + y_94 >= 1
 c_1_59: y_14 + y_25 + y_29 + y_31 + y_35 + y_44 + y_56 + y_59 + y_61
   + y_76 + y_82 + y_83 + y_85 + y_96 >= 1
 c_1_60: y_12 + y_38 + y_42 + y_43 + y_60 + y_66 + y_68 + y_73 + y_78
   + y_87 + y_97 >= 1
 c_1_61: y_1 + y_13 + y_14 + y_16 + y_23 + y_29 + y_33 + y_35 + y_47 + y_59
   + y_61 + y_69 + y_76 + y_85 + y_96 >= 1
 c_1_62: y_8 + y_16 + y_36 + y_45 + y_54 + y_62 + y_72 + y_75 >= 1
 c_1_63: y_3 + y_5 + y_10 + y_11 + y_17 + y_21 + y_22 + y_27 + y_41 + y_55
   + y_63 + y_70 + y_81 + y_88 + y_92 >= 1
 c_1_64: y_4 + y_36 + y_51 + y_64 + y_65 + y_86 + y_98 >= 1
 c_1_65: y_4 + y_51 + y_64 + y_65 + y_86 + y_87 + y_90 + y_91 + y_98 >= 1
 c_1_66: y_12 + y_20 + y_34 + y_38 + y_42 + y_43 + y_60 + y_66 + y_68
   + y_73 + y_78 + y_79 + y_80 + y_97 >= 1
 c_1_67: y_15 + y_17 + y_27 + y_37 + y_44 + y_57 + y_67 + y_71 + y_81
   + y_83 + y_93 + y_99 >= 1
 c_1_68: y_20 + y_42 + y_60 + y_66 + y_68 + y_73 + y_78 + y_80 >= 1
 c_1_69: y_10 + y_16 + y_19 + y_23 + y_33 + y_35 + y_46 + y_55 + y_61
   + y_69 + y_70 >= 1
 c_1_70: y_5 + y_10 + y_11 + y_19 + y_24 + y_46 + y_55 + y_63 + y_69 + y_70
   + y_92 + y_93 >= 1
 c_1_71: y_15 + y_17 + y_27 + y_57 + y_67 + y_71 + y_81 + y_93 + y_99 >= 1
 c_1_72: y_8 + y_16 + y_30 + y_36 + y_45 + y_54 + y_62 + y_72 + y_75 >= 1
 c_1_73: y_12 + y_20 + y_38 + y_42 + y_43 + y_60 + y_66 + y_68 + y_73
   + y_78 + y_79 + y_80 + y_97 >= 1
 c_1_74: y_0 + y_2 + y_39 + y_48 + y_49 + y_52 + y_74 + y_94 >= 1
 c_1_75: y_16 + y_19 + y_36 + y_45 + y_46 + y_54 + y_62 + y_72 + y_75 >= 1
 c_1_76: y_1 + y_13 + y_14 + y_18 + y_23 + y_29 + y_33 + y_34 + y_35 + y_38
   + y_47 + y_59 + y_61 + y_76 + y_79 + y_85 >= 1
 c_1_77: y_18 + y_34 + y_40 + y_48 + y_49 + y_58 + y_77 + y_84 >= 1
 c_1_78: y_12 + y_20 + y_38 + y_42 + y_43 + y_60 + y_66 + y_68 + y_73
   + y_78 + y_80 + y_97 >= 1
 c_1_79: y_12 + y_34 + y_38 + y_43 + y_47 + y_66 + y_73 + y_76 + y_79
   + y_80 + y_84 + y_97 >= 1
 c_1_80: y_34 + y_38 + y_42 + y_66 + y_68 + y_73 + y_78 + y_79 + y_80
   + y_97 >= 1
 c_1_81: y_15 + y_17 + y_27 + y_57 + y_63 + y_67 + y_71 + y_81 + y_83
   + y_93 + y_99 >= 1
 c_1_82: y_14 + y_25 + y_31 + y_39 + y_44 + y_52 + y_53 + y_56 + y_57
   + y_59 + y_82 + y_83 + y_85 + y_96 >= 1
 c_1_83: y_15 + y_25 + y_31 + y_37 + y_44 + y_53 + y_56 + y_57 + y_59
   + y_67 + y_81 + y_82 + y_83 + y_93 + y_96 + y_99 >= 1
 c_1_84: y_18 + y_34 + y_40 + y_58 + y_77 + y_79 + y_84 >= 1
 c_1_85: y_14 + y_18 + y_25 + y_29 + y_31 + y_35 + y_47 + y_59 + y_61
   + y_76 + y_82 + y_85 + y_96 >= 1
 c_1_86: y_4 + y_8 + y_36 + y_51 + y_54 + y_64 + y_65 + y_86 + y_90 + y_98
   >= 1
 c_1_87: y_4 + y_42 + y_60 + y_65 + y_87 + y_91 + y_98 >= 1
 c_1_88: y_3 + y_5 + y_21 + y_22 + y_27 + y_41 + y_63 + y_88 + y_89 >= 1
 c_1_89: y_3 + y_17 + y_27 + y_41 + y_88 + y_89 >= 1
 c_1_90: y_8 + y_28 + y_54 + y_65 + y_86 + y_90 >= 1
 c_1_91: y_4 + y_65 + y_87 + y_91 + y_98 >= 1
 c_1_92: y_3 + y_5 + y_10 + y_11 + y_19 + y_21 + y_22 + y_24 + y_27 + y_46
   + y_55 + y_63 + y_70 + y_92 >= 1
 c_1_93: y_10 + y_15 + y_27 + y_31 + y_44 + y_55 + y_56 + y_57 + y_67
   + y_70 + y_71 + y_81 + y_83 + y_93 + y_99 >= 1
 c_1_94: y_0 + y_2 + y_18 + y_39 + y_40 + y_48 + y_49 + y_52 + y_58 + y_74
   + y_94 >= 1
 c_1_95: y_6 + y_7 + y_8 + y_9 + y_26 + y_28 + y_32 + y_95 >= 1
 c_1_96: y_14 + y_25 + y_29 + y_31 + y_44 + y_52 + y_56 + y_59 + y_61
   + y_82 + y_83 + y_85 + y_96 >= 1
 c_1_97: y_12 + y_34 + y_38 + y_42 + y_43 + y_47 + y_60 + y_66 + y_73
   + y_78 + y_79 + y_80 + y_97 >= 1
 c_1_98: y_4 + y_64 + y_65 + y_86 + y_87 + y_91 + y_98 >= 1
 c_1_99: y_15 + y_31 + y_37 + y_44 + y_53 + y_56 + y_57 + y_67 + y_71
   + y_81 + y_83 + y_93 + y_99 >= 1
Bounds
 Constant = 1
Binaries
 y_0 y_1 y_2 y_3 y_4 y_5 y_6 y_7 y_8 y_9 y_10 y_11 y_12 y_13 y_14 y_15 y_16
 y_17 y_18 y_19 y_20 y_21 y_22 y_23 y_24 y_25 y_26 y_27 y_28 y_29 y_30 y_31
 y_32 y_33 y_34 y_35 y_36 y_37 y_38 y_39 y_40 y_41 y_42 y_43 y_44 y_45 y_46
 y_47 y_48 y_49 y_50 y_51 y_52 y_53 y_54 y_55 y_56 y_57 y_58 y_59 y_60 y_61
 y_62 y_63 y_64 y_65 y_66 y_67 y_68 y_69 y_70 y_71 y_72 y_73 y_74 y_75 y_76
 y_77 y_78 y_79 y_80 y_81 y_82 y_83 y_84 y_85 y_86 y_87 y_88 y_89 y_90 y_91
 y_92 y_93 y_94 y_95 y_96 y_97 y_98 y_99
End
